p cnf 10 50
-6 1 5 0
-9 -5 -4 0
-9 -4 -6 0
3 10 5 0
-3 -6 5 0
4 10 -5 0
-5 -6 -2 0
-3 1 -6 0
-5 -3 2 0
1 -8 9 0
1 -8 9 0
2 9 6 0
3 5 -9 0
-9 1 -2 0
3 -1 10 0
-2 8 -9 0
-6 -3 4 0
10 -6 9 0
-3 8 9 0
6 -2 -8 0
9 8 -5 0
5 3 1 0
2 -1 -10 0
2 -4 6 0
2 -7 -6 0
-4 6 -2 0
-1 -7 8 0
-1 7 10 0
9 3 -2 0
-7 8 6 0
-5 10 2 0
4 7 10 0
-1 -7 -4 0
-10 2 -9 0
-9 2 -7 0
5 6 -4 0
6 -3 8 0
10 -4 -5 0
10 2 6 0
6 -4 -7 0
5 3 4 0
3 -7 8 0
3 -7 5 0
-10 -3 1 0
9 8 -5 0
1 -3 -10 0
-8 7 1 0
8 6 -10 0
2 5 -1 0
-1 5 4 0